rectOffsets = 
    [|0,0,3,3|0,0,3,3|0,0,3,4|0,0,4,3|0,0,3,5|0,0,5,3|0,0,3,6|0,0,6,3|0,0,5,3|0,0,3,5|0,0,5,4|0,0,4,5|0,0,8,4|0,0,4,8|];

shape = array1d(1..14, [{1}, {2}, {3}, {4}, {5}, {6}, {7}, {8}, {9}, {10},
    {11}, {12}, {13}, {14}]);

validshapes = array1d(1..7, [{1,2}, {3,4}, {5,6}, {7,8}, {9,10}, {11,12}, {13,14}]);

dx = array1d(1..7, [3, 3, 3, 3, 5, 5, 8]);

dy = array1d(1..7, [3, 4, 5, 6, 3, 4, 4]);

w = 11;

n = 7;

o = 14;

